data/solutions/recovery/wellformed/moderate/flexible/wellformed_moderate_instance76/50.sol
Elapsed time: 0.04
Upper bound: 1904.0
Planning weighted value: 121913.0
C[0]=1904.0
C[1]=1889.0
C[2]=1860.0
C[3]=1816.0
C[4]=1812.0
C[5]=0.0
y[0]=0
y[1]=0
y[2]=1
y[3]=4
y[4]=4
y[5]=3
y[6]=1
y[7]=4
y[8]=2
y[9]=3
y[10]=3
y[11]=3
y[12]=2
y[13]=1
y[14]=4
y[15]=0
y[16]=0
y[17]=4
y[18]=1
y[19]=2
