data/solutions/recovery/wellformed/moderate/flexible/wellformed_moderate_instance76/50.log

Log started (V12.6.3.0) Fri Apr 20 20:56:43 2018

New value for default parallel thread count: 1

Problem '/tmp/tmpdQ8hRO.pyomo.lp' read.
Read time = 0.00 sec. (0.03 ticks)

Problem name         : /tmp/tmpdQ8hRO.pyomo.lp
Objective sense      : Minimize
Variables            :     128  [Nneg: 1,  Binary: 120,  General Integer: 7]
Objective nonzeros   :       1
Linear constraints   :      54  [Less: 26,  Equal: 28]
  Nonzeros           :    1973
  RHS nonzeros       :      41

Variables            : Min LB: 0.000000         Max UB: 1.000000       
Objective nonzeros   : Min   : 1.000000         Max   : 1.000000       
Linear constraints   :
  Nonzeros           : Min   : 1.000000         Max   : 971.0000       
  RHS nonzeros       : Min   : 1.000000         Max   : 2.000000       
Tried aggregator 2 times.
MIP Presolve eliminated 23 rows and 26 columns.
Aggregator did 6 substitutions.
Reduced MIP has 25 rows, 96 columns, and 259 nonzeros.
Reduced MIP has 95 binaries, 1 generals, 0 SOSs, and 0 indicators.
Presolve time = 0.00 sec. (0.74 ticks)
Found incumbent of value 9281.000000 after 0.00 sec. (0.91 ticks)
Probing time = 0.00 sec. (0.08 ticks)
Cover probing fixed 0 vars, tightened 3 bounds.
Tried aggregator 1 time.
Reduced MIP has 25 rows, 96 columns, and 259 nonzeros.
Reduced MIP has 95 binaries, 1 generals, 0 SOSs, and 0 indicators.
Presolve time = 0.00 sec. (0.17 ticks)
Probing time = 0.00 sec. (0.06 ticks)
Clique table members: 19.
MIP emphasis: balance optimality and feasibility.
MIP search method: dynamic search.
Parallel mode: none, using 1 thread.
Root relaxation solution time = 0.00 sec. (0.08 ticks)

        Nodes                                         Cuts/
   Node  Left     Objective  IInf  Best Integer    Best Bound    ItCnt     Gap

*     0+    0                         9281.0000      971.0000            89.54%
      0     0     1856.2000     8     9281.0000     1856.2000        8   80.00%
*     0+    0                         2322.0000     1856.2000            20.06%
      0     0     1857.0000    16     2322.0000       Cuts: 6       31   20.03%
*     0+    0                         2203.0000     1857.0000            15.71%
      0     0     1863.7302    19     2203.0000      Cuts: 12       91   15.40%
*     0+    0                         2009.0000     1863.7302             7.23%
      0     0     1866.5295    15     2009.0000       Cuts: 9      114    7.09%
*     0+    0                         1909.0000     1866.5295             2.22%
      0     0     1868.2000    18     1909.0000    MIRcuts: 4      122    2.14%
      0     0     1868.9731    19     1909.0000       Cuts: 7      129    2.10%
      0     0     1870.1605    23     1909.0000       Cuts: 8      141    2.03%
*     0+    0                         1907.0000     1870.1605             1.93%
      0     0     1870.7205    23     1907.0000       Cuts: 9      154    1.90%
      0     0     1871.0322    24     1907.0000      Cuts: 10      167    1.89%
      0     0     1871.1979    27     1907.0000    MIRcuts: 4      178    1.88%
      0     0     1871.6098    26     1907.0000    MIRcuts: 3      190    1.86%
      0     0     1872.3533    29     1907.0000       Cuts: 8      197    1.82%
      0     0     1874.1723    35     1907.0000       Cuts: 3      207    1.72%
      0     0     1874.5819    38     1907.0000    MIRcuts: 4      217    1.70%
      0     0     1875.8953    32     1907.0000    MIRcuts: 4      230    1.63%
      0     0     1877.0755    28     1907.0000    MIRcuts: 8      240    1.57%
*     0+    0                         1906.0000     1877.0755             1.52%
      0     0     1877.0759    31     1906.0000    MIRcuts: 1      242    1.52%
*     0+    0                         1904.0000     1877.0759             1.41%
      0     2     1877.0759    31     1904.0000     1877.0786      242    1.41%
Elapsed time = 0.02 sec. (14.50 ticks, tree = 0.01 MB, solutions = 8)

Flow cuts applied:  1
Mixed integer rounding cuts applied:  20
Gomory fractional cuts applied:  1

Root node processing (before b&c):
  Real time             =    0.02 sec. (14.50 ticks)
Sequential b&c:
  Real time             =    0.01 sec. (5.20 ticks)
                          ------------
Total (root+branch&cut) =    0.03 sec. (19.70 ticks)

Solution pool: 8 solutions saved.

MIP - Integer optimal solution:  Objective =  1.9040000000e+03
Solution time =    0.03 sec.  Iterations = 708  Nodes = 72
Deterministic time = 19.70 ticks  (739.35 ticks/sec)


Incumbent solution written to file '/tmp/tmpx7ri0Y.cplex.sol'.
